hw4/hw4_1C.dat
set N := 1 2 3 4 5 6 7 8;

set ARC := (1,2) (1,3) (2,4) (2,5) (3,4) (3,6) (4,7) (5,7) (6,5) (6,8) (7,6) (7,8);

set A := 1 2;

param M := 1000000;

param capacity :=
[1,2] 15
[1,3] 10
[2,4] 12
[2,5] 10
[3,4] 10
[3,6] 8
[4,7] 10
[5,7] 5
[6,5] 6
[6,8] 9
[7,6] 7
[7,8] 12;

param gain:
      1            2 :=
1 2 1            1
1 3 1.2          0.2
2 4 1.1          0.1
2 5 1.3          0.3
3 4 0.95         0.5
3 6 1.4          1.2
4 7 1.2          0.2
5 7 1.0          1.0
6 5 1.1          1.2
6 8 1.3          1.3
7 6 0.9          2.0
7 8 1.5          1.9;

param supply : 
     1   2 :=
1    1   0
2    0   1
3    0   0
4    0   0
5    0   0
6    0   0
7    0   0
8   -1  -1;

