hw4/hw4_1C.out
x [*,*,1]
:   2    3    4   5   6   7    8     :=
1   11   10   .   .   .   .    .
2   .    .    8   3   .   .    .
3   .    .    2   .   8   .    .
4   .    .    .   .   .   10   .
5   .    .    .   .   .    3   .
6   .    .    .   0   .   .     9
7   .    .    .   .   1   .    12

 [*,*,2]
:   2   3   4   5   6   7   8    :=
1   0   0   .   .   .   .   .
2   .   .   0   0   .   .   .
3   .   .   0   .   0   .   .
4   .   .   .   .   .   0   .
5   .   .   .   .   .   2   .
6   .   .   .   2   .   .   0
7   .   .   .   .   2   .   0
;

Total_Gain = 102.8

